1620021600
1620054000
1620108000
1620142200
1620194400
1620223200
1620280800
1620315000
1620367200
1620399600
1620626400
1620658800
1620714600
1620747000
1620972000
1621004400
1620799200
1620816300
1621231200
1621265400
1621317600
1621344600
1621404000
1621438200
1621490400
1621524600
1621576800
1621611000
1621922400
1621956600
1622011500
1622008800
1622095200
1622129040
1622181600
1622204040
